p cnf 49 350
-4 -5 0
-4 -6 0
-5 -6 0
4 5 6 0
-7 -8 0
-7 -9 0
-8 -9 0
7 8 9 0
-10 -11 0
-10 -12 0
-11 -12 0
10 11 12 0
-13 -14 0
-13 -15 0
-14 -15 0
13 14 15 0
-16 -17 0
16 17 0
-18 -19 0
18 19 0
-20 -21 0
-20 -22 0
-21 -22 0
20 21 22 0
-23 -24 0
-23 -25 0
-24 -25 0
23 24 25 0
-4 -7 0
-4 -10 0
-4 -13 0
-4 -16 0
-4 -18 0
-4 -20 0
-4 -23 0
-7 -10 0
-7 -13 0
-7 -16 0
-7 -18 0
-7 -20 0
-7 -23 0
-10 -13 0
-10 -16 0
-10 -18 0
-10 -20 0
-10 -23 0
-13 -16 0
-13 -18 0
-13 -20 0
-13 -23 0
-16 -18 0
-16 -20 0
-16 -23 0
-18 -20 0
-18 -23 0
-20 -23 0
-5 -8 0
-5 -11 0
-5 -14 0
-5 -19 0
-5 -21 0
-5 -24 0
-8 -11 0
-8 -14 0
-8 -19 0
-8 -21 0
-8 -24 0
-11 -14 0
-11 -19 0
-11 -21 0
-11 -24 0
-14 -19 0
-14 -21 0
-14 -24 0
-19 -21 0
-19 -24 0
-21 -24 0
-6 -9 0
-6 -12 0
-6 -15 0
-6 -17 0
-6 -22 0
-6 -25 0
-9 -12 0
-9 -15 0
-9 -17 0
-9 -22 0
-9 -25 0
-12 -15 0
-12 -17 0
-12 -22 0
-12 -25 0
-15 -17 0
-15 -22 0
-15 -25 0
-17 -22 0
-17 -25 0
-22 -25 0
1 -4 -8 0
1 -4 -11 0
1 -4 -14 0
1 -4 -19 0
1 -4 -21 0
1 -4 -24 0
1 -7 -5 0
1 -7 -11 0
1 -7 -14 0
1 -7 -19 0
1 -7 -21 0
1 -7 -24 0
1 -10 -5 0
1 -10 -8 0
1 -10 -14 0
1 -10 -19 0
1 -10 -21 0
1 -10 -24 0
1 -13 -5 0
1 -13 -8 0
1 -13 -11 0
1 -13 -19 0
1 -13 -21 0
1 -13 -24 0
1 -16 -5 0
1 -16 -8 0
1 -16 -11 0
1 -16 -14 0
1 -16 -19 0
1 -16 -21 0
1 -16 -24 0
1 -18 -5 0
1 -18 -8 0
1 -18 -11 0
1 -18 -14 0
1 -18 -21 0
1 -18 -24 0
1 -20 -5 0
1 -20 -8 0
1 -20 -11 0
1 -20 -14 0
1 -20 -19 0
1 -20 -24 0
1 -23 -5 0
1 -23 -8 0
1 -23 -11 0
1 -23 -14 0
1 -23 -19 0
1 -23 -21 0
2 -4 -9 0
2 -4 -12 0
2 -4 -15 0
2 -4 -17 0
2 -4 -22 0
2 -4 -25 0
2 -7 -6 0
2 -7 -12 0
2 -7 -15 0
2 -7 -17 0
2 -7 -22 0
2 -7 -25 0
2 -10 -6 0
2 -10 -9 0
2 -10 -15 0
2 -10 -17 0
2 -10 -22 0
2 -10 -25 0
2 -13 -6 0
2 -13 -9 0
2 -13 -12 0
2 -13 -17 0
2 -13 -22 0
2 -13 -25 0
2 -16 -6 0
2 -16 -9 0
2 -16 -12 0
2 -16 -15 0
2 -16 -22 0
2 -16 -25 0
2 -18 -6 0
2 -18 -9 0
2 -18 -12 0
2 -18 -15 0
2 -18 -17 0
2 -18 -22 0
2 -18 -25 0
2 -20 -6 0
2 -20 -9 0
2 -20 -12 0
2 -20 -15 0
2 -20 -17 0
2 -20 -25 0
2 -23 -6 0
2 -23 -9 0
2 -23 -12 0
2 -23 -15 0
2 -23 -17 0
2 -23 -22 0
3 -5 -9 0
3 -5 -12 0
3 -5 -15 0
3 -5 -17 0
3 -5 -22 0
3 -5 -25 0
3 -8 -6 0
3 -8 -12 0
3 -8 -15 0
3 -8 -17 0
3 -8 -22 0
3 -8 -25 0
3 -11 -6 0
3 -11 -9 0
3 -11 -15 0
3 -11 -17 0
3 -11 -22 0
3 -11 -25 0
3 -14 -6 0
3 -14 -9 0
3 -14 -12 0
3 -14 -17 0
3 -14 -22 0
3 -14 -25 0
3 -19 -6 0
3 -19 -9 0
3 -19 -12 0
3 -19 -15 0
3 -19 -17 0
3 -19 -22 0
3 -19 -25 0
3 -21 -6 0
3 -21 -9 0
3 -21 -12 0
3 -21 -15 0
3 -21 -17 0
3 -21 -25 0
3 -24 -6 0
3 -24 -9 0
3 -24 -12 0
3 -24 -15 0
3 -24 -17 0
3 -24 -22 0
-26 -27 0
-26 -28 0
-26 -29 0
-26 -30 0
-26 -31 0
-26 -32 0
-26 -33 0
-27 -28 0
-27 -29 0
-27 -30 0
-27 -31 0
-27 -32 0
-27 -33 0
-28 -29 0
-28 -30 0
-28 -31 0
-28 -32 0
-28 -33 0
-29 -30 0
-29 -31 0
-29 -32 0
-29 -33 0
-30 -31 0
-30 -32 0
-30 -33 0
-31 -32 0
-31 -33 0
-32 -33 0
26 27 28 29 30 31 32 33 0
-34 -35 0
-34 -36 0
-34 -37 0
-34 -38 0
-34 -39 0
-34 -40 0
-34 -41 0
-35 -36 0
-35 -37 0
-35 -38 0
-35 -39 0
-35 -40 0
-35 -41 0
-36 -37 0
-36 -38 0
-36 -39 0
-36 -40 0
-36 -41 0
-37 -38 0
-37 -39 0
-37 -40 0
-37 -41 0
-38 -39 0
-38 -40 0
-38 -41 0
-39 -40 0
-39 -41 0
-40 -41 0
34 35 36 37 38 39 40 41 0
-42 -43 0
-42 -44 0
-42 -45 0
-42 -46 0
-42 -47 0
-42 -48 0
-42 -49 0
-43 -44 0
-43 -45 0
-43 -46 0
-43 -47 0
-43 -48 0
-43 -49 0
-44 -45 0
-44 -46 0
-44 -47 0
-44 -48 0
-44 -49 0
-45 -46 0
-45 -47 0
-45 -48 0
-45 -49 0
-46 -47 0
-46 -48 0
-46 -49 0
-47 -48 0
-47 -49 0
-48 -49 0
42 43 44 45 46 47 48 49 0
-1 -26 -34 0
-1 -27 -35 0
-1 -28 -36 0
-1 -29 -37 0
-1 -30 -38 0
-1 -31 -39 0
-1 -32 -40 0
-1 -33 -41 0
-2 -26 -42 0
-2 -27 -43 0
-2 -28 -44 0
-2 -29 -45 0
-2 -30 -46 0
-2 -31 -47 0
-2 -32 -48 0
-2 -33 -49 0
-3 -34 -42 0
-3 -35 -43 0
-3 -36 -44 0
-3 -37 -45 0
-3 -38 -46 0
-3 -39 -47 0
-3 -40 -48 0
-3 -41 -49 0
